p cnf 10 50
-9 -3 -2 0
-5 -9 8 0
-10 -5 9 0
-8 -7 2 0
10 -2 1 0
-8 7 -6 0
10 5 -4 0
5 10 -7 0
-1 9 10 0
9 -8 6 0
4 7 5 0
-5 -8 -3 0
1 -6 -3 0
-4 -5 -10 0
8 -10 4 0
-10 -6 -7 0
1 -7 -9 0
1 -3 10 0
2 5 10 0
4 8 -10 0
6 7 2 0
4 7 -5 0
5 9 -3 0
9 -3 2 0
-1 8 9 0
-5 6 -3 0
3 -4 8 0
-6 1 9 0
-10 3 5 0
-1 10 2 0
10 4 8 0
4 -7 9 0
-9 -4 -10 0
8 -5 -6 0
2 3 9 0
10 6 5 0
-6 10 -3 0
1 -7 -10 0
1 6 -10 0
3 -2 9 0
1 5 9 0
-9 7 4 0
1 9 -8 0
6 10 -8 0
2 -10 -3 0
-3 -6 -9 0
-7 6 2 0
-7 -1 10 0
5 -3 9 0
-9 -1 10 0